
Gurobi 10.0.1 (win64) logging started Thu Jul 13 17:37:34 2023

Set parameter LogFile to value "results-360s-mipfocus3/log/FTQL_makespan.log"
Gurobi Optimizer version 10.0.1 build v10.0.1rc0 (win64)

CPU model: AMD Ryzen 7 3700X 8-Core Processor, instruction set [SSE2|AVX|AVX2]
Thread count: 8 physical cores, 16 logical processors, using up to 16 threads

Optimize a model with 195 rows, 395 columns and 702 nonzeros
Model fingerprint: 0x71c12e63
Variable types: 0 continuous, 395 integer (370 binary)
Coefficient statistics:
  Matrix range     [1e+00, 1e+08]
  Objective range  [1e+00, 1e+00]
  Bounds range     [1e+00, 1e+00]
  RHS range        [1e+00, 3e+08]
Presolve removed 78 rows and 322 columns
Presolve time: 0.00s
Presolved: 117 rows, 73 columns, 332 nonzeros
Variable types: 0 continuous, 73 integer (49 binary)
Root relaxation presolved: 117 rows, 73 columns, 332 nonzeros


Root relaxation: objective 1.569600e+05, 37 iterations, 0.00 seconds (0.00 work units)

    Nodes    |    Current Node    |     Objective Bounds      |     Work
 Expl Unexpl |  Obj  Depth IntInf | Incumbent    BestBd   Gap | It/Node Time

     0     0 156960.000    0   27          - 156960.000      -     -    0s
H    0     0                    293227.00000 156960.000  46.5%     -    0s
H    0     0                    288181.00000 156960.000  45.5%     -    0s
H    0     0                    278091.00000 156960.000  43.6%     -    0s
H    0     0                    273091.00000 156960.000  42.5%     -    0s
H    0     0                    250942.00000 163176.000  35.0%     -    0s
     0     0 222926.032    0   32 250942.000 222926.032  11.2%     -    0s
     0     0 223181.898    0   44 250942.000 223181.898  11.1%     -    0s
     0     0 223392.486    0   33 250942.000 223392.486  11.0%     -    0s
     0     0 223392.486    0   34 250942.000 223392.486  11.0%     -    0s
     0     0 225064.092    0   41 250942.000 225064.092  10.3%     -    0s
     0     0 225121.000    0   44 250942.000 225121.000  10.3%     -    0s
     0     0 225121.000    0   41 250942.000 225121.000  10.3%     -    0s
     0     0 225121.000    0   45 250942.000 225121.000  10.3%     -    0s
     0     0 225121.000    0   43 250942.000 225121.000  10.3%     -    0s
     0     0 229851.224    0   41 250942.000 229851.224  8.40%     -    0s
     0     0 230014.559    0   42 250942.000 230014.559  8.34%     -    0s
     0     0 230014.559    0   43 250942.000 230014.559  8.34%     -    0s
     0     0 231570.573    0   46 250942.000 231570.573  7.72%     -    0s
     0     0 231603.871    0   45 250942.000 231603.871  7.71%     -    0s
     0     0 231603.871    0   44 250942.000 231603.871  7.71%     -    0s
     0     0 231659.585    0   46 250942.000 231659.585  7.68%     -    0s
     0     0 234127.659    0   49 250942.000 234127.659  6.70%     -    0s
     0     0 235348.840    0   51 250942.000 235348.840  6.21%     -    0s
     0     0 235353.973    0   51 250942.000 235353.973  6.21%     -    0s
     0     0 236507.733    0   53 250942.000 236507.733  5.75%     -    0s
     0     0 236602.490    0   57 250942.000 236602.490  5.71%     -    0s
     0     0 237954.959    0   56 250942.000 237954.959  5.18%     -    0s
     0     0 238047.844    0   55 250942.000 238047.844  5.14%     -    0s
     0     2 238047.844    0   55 250942.000 238047.844  5.14%     -    0s
H  408   161                    250662.00000 246380.838  1.71%  26.2    0s

Cutting planes:
  Gomory: 9
  Implied bound: 30
  Projected implied bound: 1
  MIR: 54
  Flow cover: 318
  Zero half: 17
  RLT: 10
  Relax-and-lift: 104

Explored 686 nodes (14612 simplex iterations) in 0.64 seconds (0.49 work units)
Thread count was 16 (of 16 available processors)

Solution count 6: 250662 250942 273091 ... 293227

Optimal solution found (tolerance 1.00e-04)
Best objective 2.506620000000e+05, best bound 2.506620000000e+05, gap 0.0000%
Warning: constraint name "precedence between 1,1 to 0,0 if x_[j,l,h,z,i]=1" has a space
Warning: constraint name "precedence between 1,1 to 0,0 if x_[j,l,h,z,i]=1" has a space
Warning: default constraint names used to write mps file
